186 5
10 10 10 10 10 

0 0 0 0 0 0 3 2 14 26 
0 0 0 0 0 0 7 3 4 6 8 11 12 64 
7 0 0 1 0 0 2 10 7 
1 0 0 3 0 0 1 5 
7 0 0 6 0 0 2 10 9 
10 0 0 8 0 0 1 7 
6 0 0 7 0 0 1 9 
7 0 0 10 0 0 1 9 
6 0 0 5 0 0 1 13 
1 0 0 1 0 0 1 13 
3 0 0 5 0 0 1 13 
4 0 0 4 0 0 1 13 
0 0 0 0 0 0 1 38 
0 0 0 0 0 0 5 15 17 18 19 24 
3 0 0 0 1 0 2 23 16 
4 0 0 0 4 0 2 21 20 
5 0 0 0 7 0 1 22 
9 0 0 0 6 0 2 20 57 
7 0 0 0 4 0 1 20 
4 0 0 0 7 0 1 25 
8 0 0 0 3 0 1 25 
3 0 0 0 7 0 1 25 
5 0 0 0 6 0 1 25 
6 0 0 0 5 0 1 25 
0 0 0 0 0 0 1 38 
0 0 0 0 0 0 4 27 28 29 36 
10 0 1 0 0 0 5 35 34 32 31 30 
3 0 6 0 0 0 5 34 32 31 30 57 
1 0 4 0 0 0 2 34 30 
4 0 10 0 0 0 1 33 
3 0 7 0 0 0 1 33 
2 0 3 0 0 0 1 33 
4 0 6 0 0 0 1 37 
3 0 5 0 0 0 1 37 
3 0 3 0 0 0 1 37 
8 0 5 0 0 0 1 37 
0 0 0 0 0 0 1 38 
0 0 0 0 0 0 3 39 51 63 
0 0 0 0 0 0 6 40 41 43 47 48 49 
4 1 0 0 0 0 2 46 44 
9 6 0 0 0 0 1 42 
10 4 0 0 0 0 2 46 45 
2 4 0 0 0 0 1 44 
1 7 0 0 0 0 1 45 
2 9 0 0 0 0 1 50 
4 3 0 0 0 0 1 50 
6 7 0 0 0 0 1 50 
1 6 0 0 0 0 2 50 176 
9 3 0 0 0 0 1 50 
0 0 0 0 0 0 1 75 
0 0 0 0 0 0 6 52 53 55 56 57 169 
1 0 1 0 0 0 3 61 60 54 
1 0 8 0 0 0 2 60 54 
6 0 5 0 0 0 2 59 58 
10 0 9 0 0 0 2 61 59 
8 0 1 0 0 0 1 60 
10 0 2 0 0 0 1 58 
10 0 9 0 0 0 1 62 
4 0 4 0 0 0 1 62 
8 0 5 0 0 0 1 62 
5 0 6 0 0 0 1 62 
0 0 0 0 0 0 1 75 
0 0 0 0 0 0 5 64 65 66 69 73 
4 0 0 1 0 0 3 72 68 67 
4 0 0 6 0 0 2 72 67 
9 0 0 5 0 0 2 68 67 
10 0 0 5 0 0 2 71 70 
7 0 0 2 0 0 1 70 
3 0 0 5 0 0 2 70 95 
6 0 0 7 0 0 1 74 
8 0 0 3 0 0 1 74 
3 0 0 9 0 0 1 74 
7 0 0 7 0 0 1 74 
0 0 0 0 0 0 1 75 
0 0 0 0 0 0 3 76 88 100 
0 0 0 0 0 0 6 77 79 80 81 85 86 
2 0 0 0 0 1 2 84 78 
7 0 0 0 0 3 1 82 
7 0 0 0 0 6 1 83 
3 0 0 0 0 4 1 82 
10 0 0 0 0 8 1 82 
7 0 0 0 0 3 2 87 143 
9 0 0 0 0 8 1 87 
1 0 0 0 0 3 1 87 
3 0 0 0 0 7 1 87 
9 0 0 0 0 7 1 87 
0 0 0 0 0 0 1 112 
0 0 0 0 0 0 5 89 90 92 98 135 
10 0 0 2 0 0 3 97 95 91 
3 0 0 4 0 0 3 95 94 93 
1 0 0 3 0 0 2 94 93 
10 0 0 6 0 0 2 96 93 
5 0 0 10 0 0 1 99 
1 0 0 7 0 0 1 99 
2 0 0 2 0 0 1 99 
1 0 0 7 0 0 1 99 
9 0 0 3 0 0 1 99 
7 0 0 6 0 0 1 99 
0 0 0 0 0 0 1 112 
0 0 0 0 0 0 5 101 102 104 109 110 
2 0 0 0 0 2 3 108 105 103 
1 0 0 0 0 5 3 108 107 105 
6 0 0 0 0 5 2 107 106 
7 0 0 0 0 10 3 107 106 166 
8 0 0 0 0 6 1 106 
4 0 0 0 0 4 1 111 
1 0 0 0 0 6 1 111 
5 0 0 0 0 3 1 111 
3 0 0 0 0 1 1 111 
8 0 0 0 0 8 1 111 
0 0 0 0 0 0 1 112 
0 0 0 0 0 0 3 113 125 137 
0 0 0 0 0 0 7 114 118 119 120 121 122 123 
8 0 1 0 0 0 1 115 
10 0 8 0 0 0 2 117 116 
9 0 4 0 0 0 1 124 
1 0 6 0 0 0 1 124 
1 0 5 0 0 0 2 124 178 
2 0 8 0 0 0 1 124 
7 0 2 0 0 0 1 124 
7 0 5 0 0 0 1 124 
7 0 6 0 0 0 1 124 
2 0 5 0 0 0 1 124 
0 0 0 0 0 0 1 149 
0 0 0 0 0 0 4 126 127 131 171 
3 1 0 0 0 0 3 130 129 128 
4 5 0 0 0 0 2 130 129 
3 4 0 0 0 0 4 135 134 133 132 
7 8 0 0 0 0 3 135 134 132 
9 6 0 0 0 0 3 135 133 132 
5 4 0 0 0 0 3 134 133 132 
10 6 0 0 0 0 1 136 
1 5 0 0 0 0 1 136 
1 5 0 0 0 0 1 136 
9 6 0 0 0 0 1 136 
0 0 0 0 0 0 1 149 
0 0 0 0 0 0 7 138 139 140 142 143 144 147 
5 0 0 0 0 1 2 146 141 
1 0 0 0 0 6 2 146 141 
3 0 0 0 0 6 2 146 145 
3 0 0 0 0 4 1 145 
7 0 0 0 0 4 2 145 166 
3 0 0 0 0 3 1 145 
1 0 0 0 0 4 1 145 
6 0 0 0 0 6 1 148 
3 0 0 0 0 7 1 148 
4 0 0 0 0 9 1 148 
0 0 0 0 0 0 1 149 
0 0 0 0 0 0 3 150 162 174 
0 0 0 0 0 0 4 151 152 154 155 
2 1 0 0 0 0 4 160 158 153 175 
8 4 0 0 0 0 3 158 157 156 
7 8 0 0 0 0 2 157 156 
3 4 0 0 0 0 2 159 156 
1 5 0 0 0 0 1 156 
9 6 0 0 0 0 1 161 
2 4 0 0 0 0 1 161 
1 10 0 0 0 0 1 161 
7 3 0 0 0 0 1 161 
2 5 0 0 0 0 1 161 
0 0 0 0 0 0 1 186 
0 0 0 0 0 0 3 163 166 167 
2 0 1 0 0 0 2 165 164 
1 0 5 0 0 0 4 172 170 169 168 
4 0 5 0 0 0 3 171 170 168 
6 0 6 0 0 0 2 169 168 
10 0 5 0 0 0 2 168 180 
3 0 8 0 0 0 1 173 
8 0 2 0 0 0 1 173 
7 0 4 0 0 0 1 173 
1 0 5 0 0 0 1 173 
6 0 9 0 0 0 1 173 
0 0 0 0 0 0 1 186 
0 0 0 0 0 0 3 175 177 179 
7 0 2 0 0 0 2 178 176 
5 0 3 0 0 0 5 184 183 182 181 180 
10 0 3 0 0 0 5 184 183 182 181 180 
5 0 4 0 0 0 4 183 182 181 180 
2 0 4 0 0 0 2 181 180 
4 0 6 0 0 0 1 185 
10 0 5 0 0 0 1 185 
9 0 8 0 0 0 1 185 
9 0 5 0 0 0 1 185 
2 0 10 0 0 0 1 185 
0 0 0 0 0 0 1 186 
0 0 0 0 0 0 0 
